c 
c MolecularSimulation 0.9.3
c Simulation written: Jan 13 2012 -- 15:17:57
c Test: Distribution
c Input: ./data/testCNF/SWEEP_R3_K3_N20_M56_S002.cnf
c 
s SATISFIABLE
v 1 2 3 -4 5 -6 7 8 -9 -10 -11 -12 -13 14 15 16 -17 -18 19 0
c algorithmTime:  906
c solutionMemory: 1920
c mixCount:       165
c extractCount:   0
c appendCount:    16792352
c splitCount:     165
c spliceCount:    7893494
c purifyCount:    55
c 
